# Solution for model qis_1000_800_119
# Objective value = 2.9654368775537876e+02
x[0] 0
x[1] 1
x[2] 0
x[3] 0
x[4] 0
x[5] 1
x[6] 1
x[7] 1
x[8] 1
x[9] 0
x[10] 0
x[11] 0
x[12] 1
x[13] 1
x[14] 1
x[15] 0
x[16] 1
x[17] 1
x[18] 1
x[19] 1.0000004431347707e+00
x[20] 0
x[21] 0
x[22] 1
x[23] 1
x[24] 1
x[25] 1
x[26] 0
x[27] 1
x[28] 0
x[29] 0
x[30] 1
x[31] 0
x[32] 1
x[33] 0
x[34] 1
x[35] 0
x[36] 1
x[37] 1
x[38] 1
x[39] 1
x[40] 0
x[41] 1
x[42] 1
x[43] 0
x[44] 1
x[45] 0
x[46] 1
x[47] 0
x[48] 1
x[49] 1
x[50] 1
x[51] 1
x[52] 1
x[53] 0
x[54] 0
x[55] 1
x[56] 0
x[57] 1
x[58] 1
x[59] 0
x[60] 0
x[61] 1.0000002216516877e+00
x[62] 0
x[63] 1
x[64] 0
x[65] 0
x[66] 0
x[67] 0
x[68] 0
x[69] 0
x[70] 0
x[71] -4.4347825767146803e-07
x[72] 1
x[73] 1
x[74] 1
x[75] 0
x[76] 0
x[77] 1
x[78] 1
x[79] 0
x[80] 1
x[81] 0
x[82] 1.0000004433912966e+00
x[83] 0
x[84] 0
x[85] 1.0000002216391730e+00
x[86] 1
x[87] -2.2173912934552069e-07
x[88] 1
x[89] 0
x[90] 0
x[91] 0
x[92] 0
x[93] 1
x[94] 1
x[95] 0
x[96] 0
x[97] 0
x[98] 1
x[99] 0
x[100] 0
x[101] 1
x[102] 1
x[103] 0
x[104] 0
x[105] 0
x[106] 0
x[107] 1
x[108] 0
x[109] 1
x[110] 1.0000002216625485e+00
x[111] 0
x[112] 0
x[113] 0
x[114] 0
x[115] 1
x[116] 0
x[117] 1
x[118] 0
x[119] 1
x[120] 1
x[121] 1
x[122] 1
x[123] 1
x[124] 0
x[125] 0
x[126] 0
x[127] 1
x[128] 1
x[129] 1
x[130] 1
x[131] 0
x[132] 0
x[133] 1
x[134] -2.2173912877675514e-07
x[135] 1
x[136] 0
x[137] 1
x[138] 1.0000004432828855e+00
x[139] 0
x[140] -4.4014492414443356e-07
x[141] 0
x[142] 1
x[143] 1
x[144] 1
x[145] 1.0000002215974189e+00
x[146] -2.2204460492503131e-16
x[147] 1.0000002216675146e+00
x[148] 1
x[149] 1
x[150] 0
x[151] 0
x[152] 1
x[153] 0
x[154] 1
x[155] 0
x[156] 1
x[157] 1
x[158] 0
x[159] 1
x[160] 0
x[161] 0
x[162] 0
x[163] 0
x[164] -3.3306690738754696e-16
x[165] 1
x[166] 0
x[167] 0
x[168] 0
x[169] 0
x[170] 0
x[171] 0
x[172] 0
x[173] 0
x[174] 1
x[175] 0
x[176] 0
x[177] 1
x[178] 0
x[179] 0
x[180] 1
x[181] 0
x[182] 0
x[183] 1
x[184] 0
x[185] 1
x[186] 1
x[187] 1
x[188] 1
x[189] 0
x[190] 1
x[191] 1
x[192] 0
x[193] 0
x[194] 1
x[195] 0
x[196] 0
x[197] 9.9999999999999978e-01
x[198] 1.0000004434026546e+00
x[199] 0
x[200] 1
x[201] 0
x[202] -2.2173912883616254e-07
x[203] 0
x[204] 1
x[205] 1
x[206] 0
x[207] 0
x[208] 1
x[209] 1
x[210] 1
x[211] -1.4936061061769676e-07
x[212] 0
x[213] 1
x[214] 0
x[215] 1
x[216] 1
x[217] 1
x[218] 0
x[219] 1
x[220] 1
x[221] 0
x[222] 0
x[223] 0
x[224] 0
x[225] 1
x[226] 0
x[227] 1
x[228] 1
x[229] 0
x[230] 1
x[231] 1
x[232] -2.2173912876863180e-07
x[233] 0
x[234] 0
x[235] 1
x[236] 1
x[237] 1
x[238] 1
x[239] 0
x[240] 1
x[241] 0
x[242] -2.1821823232839891e-07
x[243] 0
x[244] 1
x[245] 1
x[246] 0
x[247] 0
x[248] 1
x[249] 0
x[250] 0
x[251] 1
x[252] 0
x[253] 1
x[254] 0
x[255] 1
x[256] 0
x[257] 0
x[258] 0
x[259] 1
x[260] 1
x[261] -2.1832921521116927e-07
x[262] 1
x[263] 0
x[264] 1
x[265] 0
x[266] 0
x[267] 0
x[268] 1
x[269] 0
x[270] 0
x[271] 0
x[272] 1
x[273] 0
x[274] 0
x[275] 1
x[276] 1
x[277] 0
x[278] 1
x[279] 0
x[280] 1
x[281] -4.4408920985006262e-16
x[282] 1
x[283] -4.4006932125964669e-07
x[284] 1
x[285] 4.9913108390694190e-07
x[286] 0
x[287] 0
x[288] 1
x[289] 0
x[290] 1
x[291] 1
x[292] 1
x[293] 1
x[294] 0
x[295] 1
x[296] 1
x[297] 0
x[298] 0
x[299] 0
x[300] 0
x[301] 0
x[302] 1
x[303] 0
x[304] 1
x[305] 1
x[306] 0
x[307] 0
x[308] 0
x[309] 1
x[310] 0
x[311] 0
x[312] 1
x[313] 0
x[314] 0
x[315] 0
x[316] 0
x[317] 1.0000001107960628e+00
x[318] 1
x[319] 1
x[320] 0
x[321] 1
x[322] 1
x[323] 1
x[324] 0
x[325] 0
x[326] 1
x[327] 0
x[328] 0
x[329] 0
x[330] -4.4122320503993576e-07
x[331] 0
x[332] 0
x[333] 0
x[334] 0
x[335] 1
x[336] 1
x[337] 0
x[338] 1
x[339] 1
x[340] 0
x[341] 1
x[342] 1
x[343] 0
x[344] 0
x[345] -5.9999999535923743e-07
x[346] 1
x[347] 0
x[348] 1
x[349] 1
x[350] 0
x[351] 0
x[352] 1
x[353] 0
x[354] 1
x[355] 1
x[356] 0
x[357] 0
x[358] 0
x[359] 0
x[360] 0
x[361] 0
x[362] 1.0000001108011971e+00
x[363] 1.0000001079459508e+00
x[364] 0
x[365] 4.4340087888756291e-07
x[366] 1
x[367] 0
x[368] 1
x[369] 1
x[370] 1
x[371] 0
x[372] 1
x[373] 1
x[374] 1
x[375] 1
x[376] 0
x[377] 0
x[378] 1
x[379] 0
x[380] 1
x[381] 0
x[382] -2.1890453956061549e-07
x[383] 0
x[384] 1
x[385] 0
x[386] 0
x[387] 0
x[388] 1
x[389] 1
x[390] 0
x[391] 0
x[392] -2.7755575615628914e-17
x[393] 1
x[394] 1
x[395] 1
x[396] 0
x[397] 1
x[398] 1
x[399] 1
x[400] 0
x[401] -2.2173912876863180e-07
x[402] 1
x[403] 1
x[404] 1
x[405] 1
x[406] 1
x[407] 1
x[408] 1
x[409] 1
x[410] 0
x[411] 0
x[412] 0
x[413] 1
x[414] 1
x[415] 0
x[416] 1
x[417] 1
x[418] 1
x[419] 0
x[420] 0
x[421] 1
x[422] 1
x[423] 1
x[424] 0
x[425] 0
x[426] 4.4294365741853814e-07
x[427] 1
x[428] 1
x[429] 0
x[430] 0
x[431] 1
x[432] 1
x[433] 1
x[434] 0
x[435] 0
x[436] 1
x[437] 0
x[438] 1
x[439] 0
x[440] 0
x[441] 0
x[442] 0
x[443] 0
x[444] 1
x[445] 0
x[446] 0
x[447] 1
x[448] 0
x[449] 1
x[450] 0
x[451] 0
x[452] 0
x[453] 0
x[454] 1
x[455] 1
x[456] 0
x[457] 0
x[458] 1
x[459] 1
x[460] 1
x[461] 0
x[462] 0
x[463] 1.0000005999153085e+00
x[464] 0
x[465] 0
x[466] 1
x[467] 0
x[468] 0
x[469] 1
x[470] 0
x[471] 1
x[472] 1
x[473] 1
x[474] 0
x[475] 0
x[476] 1
x[477] 1
x[478] 0
x[479] 0
x[480] 0
x[481] 0
x[482] 0
x[483] 0
x[484] -2.1832921524403330e-07
x[485] 1
x[486] 0
x[487] 1
x[488] 1
x[489] 1
x[490] 1
x[491] 0
x[492] 1
x[493] 0
x[494] 0
x[495] 0
x[496] 1
x[497] 0
x[498] 0
x[499] 0
x[500] 0
x[501] 0
x[502] 0
x[503] 0
x[504] 1
x[505] -5.9658197520526878e-07
x[506] -2.2173912934552058e-07
x[507] 1
x[508] 0
x[509] 0
x[510] 1
x[511] 1
x[512] 0
x[513] 0
x[514] -2.2173912859500188e-07
x[515] 0
x[516] 0
x[517] 1.0000002216608612e+00
x[518] 0
x[519] 1
x[520] 1
x[521] 0
x[522] 0
x[523] 0
x[524] 1
x[525] 1
x[526] 1
x[527] 1
x[528] 1
x[529] 0
x[530] 0
x[531] 0
x[532] 1
x[533] 1
x[534] 0
x[535] 1
x[536] 0
x[537] 1
x[538] 1
x[539] 0
x[540] 1
x[541] 0
x[542] 0
x[543] 1
x[544] 1
x[545] 0
x[546] 1
x[547] 0
x[548] 0
x[549] 0
x[550] 0
x[551] 1
x[552] 0
x[553] 1
x[554] 1
x[555] 1
x[556] 0
x[557] 0
x[558] 0
x[559] 1
x[560] 0
x[561] 0
x[562] 1
x[563] 1
x[564] 1
x[565] 0
x[566] 0
x[567] 0
x[568] 0
x[569] 0
x[570] 1
x[571] 0
x[572] 1
x[573] 1
x[574] 0
x[575] 1.0000002215393922e+00
x[576] 1
x[577] 1
x[578] 0
x[579] 0
x[580] 1
x[581] 1
x[582] 0
x[583] -2.2173912876863180e-07
x[584] -4.4347825745028047e-07
x[585] 0
x[586] 1
x[587] 0
x[588] 0
x[589] 1
x[590] 1
x[591] 1
x[592] 0
x[593] 0
x[594] 1
x[595] 0
x[596] 0
x[597] 1
x[598] 0
x[599] 1
x[600] 1
x[601] 0
x[602] 0
x[603] 0
x[604] 1
x[605] 1
x[606] 0
x[607] 0
x[608] 0
x[609] 0
x[610] 1
x[611] 0
x[612] 0
x[613] 1
x[614] 0
x[615] 1
x[616] 1
x[617] 0
x[618] 0
x[619] 1
x[620] 0
x[621] 0
x[622] 1
x[623] 1
x[624] 0
x[625] 1
x[626] 1
x[627] 0
x[628] 1
x[629] 1
x[630] 1
x[631] 0
x[632] 0
x[633] 0
x[634] 1
x[635] -2.1673912883616253e-07
x[636] 1
x[637] 1
x[638] 1
x[639] 1
x[640] 0
x[641] 1
x[642] 1
x[643] 1
x[644] 1
x[645] 0
x[646] 1
x[647] 1
x[648] 1
x[649] 0
x[650] 1
x[651] 1
x[652] 0
x[653] 0
x[654] 1
x[655] 1
x[656] 1
x[657] 0
x[658] 0
x[659] 1
x[660] 0
x[661] 0
x[662] 0
x[663] 0
x[664] 0
x[665] 0
x[666] 1
x[667] 0
x[668] 0
x[669] 0
x[670] 1
x[671] 1
x[672] 1
x[673] 0
x[674] 0
x[675] 0
x[676] 1
x[677] 0
x[678] 1
x[679] 0
x[680] 0
x[681] 0
x[682] 0
x[683] 0
x[684] 0
x[685] 0
x[686] 1
x[687] 1
x[688] 0
x[689] 0
x[690] 1
x[691] 1
x[692] 1
x[693] 0
x[694] 1
x[695] 1
x[696] 0
x[697] 0
x[698] 0
x[699] -1.1086956464012587e-07
x[700] 0
x[701] 0
x[702] 1
x[703] 1
x[704] 1
x[705] 0
x[706] 0
x[707] 1
x[708] 1
x[709] 1
x[710] 1
x[711] 1
x[712] 1
x[713] 0
x[714] 1
x[715] -2.2173912874688172e-07
x[716] 0
x[717] 0
x[718] 0
x[719] 0
x[720] 1
x[721] 0
x[722] -1.1086956530587691e-07
x[723] 0
x[724] 1.0000002216569357e+00
x[725] 1
x[726] 0
x[727] 1.0000002996862394e+00
x[728] 0
x[729] 1
x[730] 0
x[731] 0
x[732] 0
x[733] 1
x[734] 0
x[735] 1
x[736] 0
x[737] 0
x[738] 1.0000002216677273e+00
x[739] 1
x[740] 0
x[741] 1
x[742] 0
x[743] 0
x[744] 0
x[745] 1
x[746] 1
x[747] 1
x[748] 0
x[749] 0
x[750] 0
x[751] 0
x[752] 1
x[753] 0
x[754] 0
x[755] 0
x[756] 1
x[757] 0
x[758] 0
x[759] 1
x[760] 1
x[761] 0
x[762] 0
x[763] 0
x[764] 1
x[765] 1
x[766] 1
x[767] 1
x[768] 1
x[769] 0
x[770] 1
x[771] 0
x[772] 0
x[773] 0
x[774] 0
x[775] 1
x[776] 1
x[777] 0
x[778] 1.0000001107565513e+00
x[779] 1.0000002216707209e+00
x[780] 1
x[781] 1
x[782] 0
x[783] 0
x[784] 1
x[785] 1
x[786] 1
x[787] 1
x[788] 1
x[789] 0
x[790] 0
x[791] 1
x[792] 1
x[793] 1
x[794] 1
x[795] 1
x[796] 1
x[797] 0
x[798] 0
x[799] 0
x[800] 0
x[801] 1
x[802] 0
x[803] 1
x[804] 1
x[805] 0
x[806] 1
x[807] 0
x[808] 0
x[809] 1
x[810] 1
x[811] 0
x[812] 1
x[813] 1
x[814] -2.1840579586207967e-07
x[815] 1
x[816] 1
x[817] 1
x[818] 0
x[819] 1
x[820] 1.0000002216180424e+00
x[821] 1
x[822] 1
x[823] 1
x[824] 0
x[825] 0
x[826] -1.1086956462389145e-07
x[827] 0
x[828] 1
x[829] 0
x[830] 0
x[831] 0
x[832] 0
x[833] 1
x[834] 1
x[835] 0
x[836] 1
x[837] 0
x[838] 1
x[839] 1
x[840] 1
x[841] 1
x[842] 1
x[843] 0
x[844] 1
x[845] 1
x[846] 0
x[847] 1
x[848] 0
x[849] 0
x[850] 0
x[851] 0
x[852] 0
x[853] 1
x[854] 0
x[855] 1
x[856] 0
x[857] 0
x[858] 1
x[859] 0
x[860] 0
x[861] 0
x[862] 1.0000002216236383e+00
x[863] 9.9999999999999989e-01
x[864] 1
x[865] 1
x[866] 1
x[867] 9.9999955993245448e-01
x[868] 0
x[869] 0
x[870] 0
x[871] 0
x[872] 1
x[873] 1
x[874] 0
x[875] 0
x[876] 1
x[877] 1
x[878] 1
x[879] 0
x[880] 0
x[881] 1
x[882] 0
x[883] 1
x[884] 1
x[885] 1
x[886] 0
x[887] 1.0000002216616650e+00
x[888] 1
x[889] 0
x[890] 0
x[891] 1
x[892] 0
x[893] 0
x[894] 1
x[895] 0
x[896] 0
x[897] 0
x[898] 0
x[899] 1
x[900] 0
x[901] 0
x[902] 1
x[903] 1
x[904] 0
x[905] 0
x[906] 1
x[907] 1
x[908] 0
x[909] 1
x[910] 1
x[911] 0
x[912] 0
x[913] 0
x[914] 1
x[915] 0
x[916] 1
x[917] 0
x[918] 0
x[919] 1
x[920] 0
x[921] 1
x[922] 1
x[923] 0
x[924] 1
x[925] 0
x[926] 1
x[927] 0
x[928] 1
x[929] 0
x[930] 0
x[931] 1
x[932] 0
x[933] 1
x[934] 1
x[935] 0
x[936] 0
x[937] 0
x[938] 9.9999999999999956e-01
x[939] 0
x[940] 0
x[941] 1
x[942] 0
x[943] 0
x[944] 1
x[945] 1
x[946] 1
x[947] 0
x[948] 1
x[949] 1
x[950] 0
x[951] 0
x[952] 1
x[953] 0
x[954] -2.2173912874263623e-07
x[955] 1
x[956] 0
x[957] 0
x[958] 1
x[959] 1
x[960] 1
x[961] 0
x[962] 0
x[963] 1
x[964] 1
x[965] 0
x[966] 0
x[967] 1
x[968] 1
x[969] 1
x[970] 1
x[971] 0
x[972] 1
x[973] 1
x[974] 1
x[975] 1
x[976] 0
x[977] 1.0000002211741312e+00
x[978] 0
x[979] 0
x[980] 1
x[981] 1
x[982] 1
x[983] 0
x[984] 1.0000001106170215e+00
x[985] 0
x[986] 1
x[987] 1
x[988] 1
x[989] 1
x[990] 1
x[991] 1
x[992] 0
x[993] 0
x[994] 1
x[995] 1
x[996] 0
x[997] 1
x[998] 0
x[999] 0
